
--- Job Ex 3.3 - Dati.gms Start 12/16/22 12:41:40 40.3.0 f227c22a DEX-DEG x86 64bit/Mac OS X
--- Applying:
    /Library/Frameworks/GAMS.framework/Versions/40/Resources/gmsprmun.txt
    /Users/marcovinciguerra/Library/Preferences/GAMS/gamsconfig.yaml
--- GAMS Parameters defined
    Input "/Users/marcovinciguerra/Github/Gams/Ex 3.3 - Dati.gms"
    PageSize 0
    ScrDir /Users/marcovinciguerra/Github/Gams/225a/
    SysDir /Library/Frameworks/GAMS.framework/Versions/40/Resources/
    LogOption 3
    ErrMsg 1
    ErrorLog 99
    IDE 1
    LstTitleLeftAligned 1
Licensee: GAMS Demo license for marco vinciguerra        G220927|0002CO-GEN
          unibg, Italy                                             DL074718
          /Users/marcovinciguerra/Library/Application Support/GAMS/gamslice.txt
          mvincig11@gmail.com, marco vinciguerra                           
          Demo license for demonstration and instructional purposes only
Processor information: 1 socket(s), 8 core(s), and 8 thread(s) available
GAMS 40.3.0   Copyright (C) 1987-2022 GAMS Development. All rights reserved
--- Starting compilation
--- Ex 3.3 - Dati.gms(143) 3 Mb
--- Starting execution: elapsed 0:00:00.005
--- Ex 3.3 - Dati.gms(98) 4 Mb
--- Generating LP model Production
--- Ex 3.3 - Dati.gms(109) 4 Mb
---   73 rows  127 columns  366 non-zeroes
--- Range statistics (absolute non-zero finite values)
--- RHS       [min, max] : [ 5.000E+01, 1.536E+03] - Zero values observed as well
--- Bound     [min, max] : [ 5.000E+01, 1.100E+03] - Zero values observed as well
--- Matrix    [min, max] : [ 1.000E-02, 1.100E+01]
--- Executing CPLEX (Solvelink=2): elapsed 0:00:00.012

IBM ILOG CPLEX   40.3.0 f227c22a Sep 16, 2022          DEG x86 64bit/Mac OS X 

--- *** This solver runs with a demo license. No commercial use.
--- GMO setup time: 0.00s
--- GMO memory 0.52 Mb (peak 0.52 Mb)
--- Dictionary memory 0.00 Mb
--- Cplex 22.1.0.0 link memory 0.00 Mb (peak 0.01 Mb)
--- Starting Cplex

Version identifier: 22.1.0.0 | 2022-03-09 | 1a383f8ce
CPXPARAM_Advance                                 0
CPXPARAM_Threads                                 1
CPXPARAM_MIP_Display                             4
CPXPARAM_MIP_Pool_Capacity                       0
CPXPARAM_MIP_Tolerances_AbsMIPGap                0
Tried aggregator 1 time.
LP Presolve eliminated 62 rows and 102 columns.
Reduced LP has 10 rows, 25 columns, and 35 nonzeros.
Presolve time = 0.00 sec. (0.08 ticks)
Initializing dual steep norms . . .

Iteration log . . .
Iteration:     1   Dual objective     =         94683.750000

--- LP status (1): optimal.
--- Cplex Time: 0.00sec (det. 0.12 ticks)


Optimal solution found
Objective:        94575.750000

--- Reading solution for model Production
--- Executing after solve: elapsed 0:00:00.049
--- Ex 3.3 - Dati.gms(131) 4 Mb
--- Generating MIP model Production_b
--- Ex 3.3 - Dati.gms(133) 4 Mb
---   84 rows  157 columns  426 non-zeroes
---   30 discrete-columns
--- Range statistics (absolute non-zero finite values)
--- RHS       [min, max] : [ 1.000E+00, 1.536E+03] - Zero values observed as well
--- Bound     [min, max] : [ 1.000E+00, 1.100E+03] - Zero values observed as well
--- Matrix    [min, max] : [ 1.000E-02, 1.100E+01]
--- Executing CPLEX (Solvelink=2): elapsed 0:00:00.052

IBM ILOG CPLEX   40.3.0 f227c22a Sep 16, 2022          DEG x86 64bit/Mac OS X 

--- *** This solver runs with a demo license. No commercial use.
--- GMO setup time: 0.00s
--- GMO memory 0.53 Mb (peak 0.53 Mb)
--- Dictionary memory 0.00 Mb
--- Cplex 22.1.0.0 link memory 0.00 Mb (peak 0.02 Mb)
--- Starting Cplex

Version identifier: 22.1.0.0 | 2022-03-09 | 1a383f8ce
CPXPARAM_Advance                                 2
CPXPARAM_Threads                                 1
CPXPARAM_MIP_Display                             4
CPXPARAM_MIP_Pool_Capacity                       0
CPXPARAM_MIP_Tolerances_AbsMIPGap                0
CPXPARAM_MIP_Tolerances_MIPGap                   0
Generic callback                                 0x50
Tried aggregator 2 times.
MIP Presolve eliminated 31 rows and 25 columns.
Aggregator did 1 substitutions.
Reduced MIP has 51 rows, 131 columns, and 200 nonzeros.
Reduced MIP has 12 binaries, 18 generals, 0 SOSs, and 0 indicators.
Presolve time = 0.00 sec. (0.16 ticks)
Found incumbent of value 3400.000000 after 0.01 sec. (0.30 ticks)
Probing time = 0.00 sec. (0.01 ticks)
Tried aggregator 1 time.
MIP Presolve eliminated 16 rows and 43 columns.
Reduced MIP has 35 rows, 88 columns, and 123 nonzeros.
Reduced MIP has 0 binaries, 0 generals, 0 SOSs, and 0 indicators.
Presolve time = 0.00 sec. (0.07 ticks)
Tried aggregator 1 time.
Detecting symmetries...
Reduced MIP has 35 rows, 88 columns, and 123 nonzeros.
Reduced MIP has 0 binaries, 0 generals, 0 SOSs, and 0 indicators.
Presolve time = 0.00 sec. (0.08 ticks)
MIP emphasis: balance optimality and feasibility.
MIP search method: dynamic search.
Parallel mode: none, using 1 thread.
Initializing dual steep norms . . .

Iteration log . . .
Iteration:     1   Dual objective     =         -1700.000000
Root relaxation solution time = 0.00 sec. (0.05 ticks)

        Nodes                                         Cuts/
   Node  Left     Objective  IInf  Best Integer    Best Bound    ItCnt     Gap

*     0+    0                        -1050.0000    -1725.0000            64.29%
Found incumbent of value -1050.000000 after 0.02 sec. (2.60 ticks)
*     0     0      integral     0    -1050.0000    -1050.0000       27    0.00%
Elapsed time = 0.02 sec. (2.61 ticks, tree = 0.00 MB)
Found incumbent of value -1050.000000 after 0.02 sec. (2.61 ticks)

Root node processing (before b&c):
  Real time             =    0.02 sec. (2.61 ticks)
Sequential b&c:
  Real time             =    0.00 sec. (0.00 ticks)
                          ------------
Total (root+branch&cut) =    0.02 sec. (2.61 ticks)

--- MIP status (101): integer optimal solution.
--- Cplex Time: 0.02sec (det. 2.61 ticks)

--- Fixing integer variables and solving final LP...

Version identifier: 22.1.0.0 | 2022-03-09 | 1a383f8ce
CPXPARAM_Advance                                 2
CPXPARAM_Threads                                 1
CPXPARAM_MIP_Display                             4
CPXPARAM_MIP_Pool_Capacity                       0
CPXPARAM_MIP_Tolerances_AbsMIPGap                0
CPXPARAM_MIP_Tolerances_MIPGap                   0
Tried aggregator 1 time.
LP Presolve eliminated 39 rows and 52 columns.
Aggregator did 4 substitutions.
Reduced LP has 40 rows, 101 columns, and 140 nonzeros.
Presolve time = 0.00 sec. (0.11 ticks)
Initializing dual steep norms . . .

Iteration log . . .
Iteration:     1   Dual objective     =         -1825.000000

--- Fixed MIP status (1): optimal.
--- Cplex Time: 0.00sec (det. 0.21 ticks)


Proven optimal solution
MIP Solution:        -1050.000000    (27 iterations, 0 nodes)
Final Solve:         -1050.000000    (31 iterations)

Best possible:       -1050.000000
Absolute gap:            0.000000
Relative gap:            0.000000

--- Reading solution for model Production_b
--- Executing after solve: elapsed 0:00:00.106
--- Ex 3.3 - Dati.gms(134) 4 Mb
*** Status: Normal completion
--- Job Ex 3.3 - Dati.gms Stop 12/16/22 12:41:40 elapsed 0:00:00.106
